45103.7
58 116 55 56 53 54 52 51 50 48 47 46 45 49 44 33 32 31 30 28 29 38 37 36 35 34 42 43 121 123 41 40 39 12 13 11 10 9 14 8 7 16 15 27 26 25 24 23 22 21 20 19 18 17 6 5 4 3 2 1 156 0 158 157 151 150 149 148 147 146 145 144 143 141 140 139 138 137 136 135 134 133 142 132 131 153 152 155 154 129 130 128 127 126 125 124 122 120 119 118 117 115 113 114 112 111 110 109 108 107 106 105 104 103 102 101 100 99 98 97 96 95 94 93 92 90 91 89 88 87 86 72 85 73 84 83 82 80 79 81 78 77 76 75 74 71 70 69 68 67 66 64 65 63 62 61 60 59 57